! Solving for graph /home/truongxuanhieu/CPLEX-MIP-for-MinSpanLabeling/benchmarks/cabp/S-sherman4.mtx.rnd
! Target value is set to 387
! Lower bound is set to 388
! Upper bound is set to 819
! Time limit is set to 1800
! Vertices mode is set to Has hole
Version identifier: 22.2.0.0 | 2026-05-04 | 5dff98e58
CPXPARAM_TimeLimit                               1800
Tried aggregator 2 times.
MIP Presolve eliminated 1344 rows and 6459 columns.
MIP Presolve modified 545 coefficients.
Aggregator did 6999 substitutions.
Reduced MIP has 9682 rows, 8342 columns, and 24475 nonzeros.
Reduced MIP has 1886 binaries, 3229 generals, 0 SOSs, and 5909 indicators.
Presolve time = 0.06 sec. (109.28 ticks)
Probing fixed 0 vars, tightened 8043 bounds.
Probing time = 0.04 sec. (20.88 ticks)
Tried aggregator 1 time.
Detecting symmetries...
MIP Presolve modified 4014 coefficients.
Reduced MIP has 9682 rows, 8342 columns, and 24475 nonzeros.
Reduced MIP has 1886 binaries, 6456 generals, 0 SOSs, and 5909 indicators.
Presolve time = 0.03 sec. (24.52 ticks)
Probing time = 0.03 sec. (4.53 ticks)
Clique table members: 4044.
MIP emphasis: balance optimality and feasibility.
MIP search method: dynamic search.
Parallel mode: deterministic, using up to 8 threads.
Root relaxation solution time = 0.25 sec. (85.77 ticks)

        Nodes                                         Cuts/
   Node  Left     Objective  IInf  Best Integer    Best Bound    ItCnt     Gap

      0     0      774.0000  1360                    774.0000        0         
      0     0      774.0000  1360                  Cuts: 2520     1543         
      0     0      774.0000   803                  Cuts: 2520     3629         
      0     0      774.0000   828                  Cuts: 2520     4908         
*     0+    0                          819.0000      774.0000             5.49%
Detecting symmetries...
      0     2      774.0000   541      819.0000      774.0000     4908    5.49%
Elapsed time = 3.15 sec. (2315.39 ticks, tree = 0.02 MB, solutions = 1)
     20     8      775.0000   535      819.0000      774.0000     4960    5.49%
     70    33      775.0000  2051      819.0000      774.0000    13594    5.49%
    162    95      775.0000  1470      819.0000      774.0000    27907    5.49%
    248   193      774.0000  2668      819.0000      774.0000    49581    5.49%
    352   226      775.0000  1150      819.0000      774.0000    56355    5.49%
    487   368      776.0000   473      819.0000      774.0000    75456    5.49%
    570   475      776.5000  1319      819.0000      774.0000    91717    5.49%
    700   525      816.0000   303      819.0000      774.0000   100696    5.49%
    788   654      775.0000  2112      819.0000      774.0000   116799    5.49%
*   848   705      integral     0      776.0000      774.0000   121438    0.26%
   1253   785      775.0000  1642      776.0000      774.0000   160535    0.26%
Elapsed time = 7.11 sec. (5451.94 ticks, tree = 5.51 MB, solutions = 2)
   1818  1118      775.0000  1747      776.0000      774.0000   212258    0.26%
*  2037  1489      integral     0      775.0000      774.0000   244371    0.13%
   2321   117      774.0000   298      775.0000      774.0000   252425    0.13%
*  2327+  102                          774.0000      774.0000             0.00%

Cover cuts applied:  284
Implied bound cuts applied:  4167

Root node processing (before b&c):
  Real time             =    3.12 sec. (2293.84 ticks)
Parallel b&c, 8 threads:
  Real time             =    7.13 sec. (5209.17 ticks)
  Sync time (average)   =    1.88 sec.
  Wait time (average)   =    0.00 sec.
                          ------------
Total (root+branch&cut) =   10.25 sec. (7503.01 ticks)
! --------------------------------------------------------
! Solve = 1
! Status = Optimal
! Cplex status = Optimal
! Obj = 774
! BestBound = 774
! --------------------------------------------------------
! --------------------------------------------------------
! Best span = 774
! Labeling: 387 387 774 774 774 387 387 387 387 387 774 387 387 774 387 387 387 774 774 774 387 774 774 387 774 774 387 387 387 774 774 774 774 774 387 387 774 387 774 387 387 774 387 774 774 774 774 774 774 774 774 774 387 387 774 387 387 774 774 774 774 774 774 774 774 387 774 387 774 387 774 387 387 387 387 387 387 774 387 387 774 774 387 774 387 387 774 387 387 387 387 387 774 774 387 774 387 774 774 774 774 387 387 774 774 774 774 387 774 387 774 387 387 387 387 774 774 774 774 774 387 774 774 774 774 774 774 387 774 774 387 774 774 774 774 387 387 774 387 774 774 774 387 387 387 387 387 387 774 387 387 774 387 387 774 774 774 774 387 387 387 387 774 387 774 774 387 774 387 387 387 387 774 774 387 774 774 774 387 387 387 387 387 387 387 774 774 774 774 387 387 774 387 774 774 774 387 387 387 774 387 387 387 774 774 774 387 387 774 387 387 774 387 774 387 387 774 387 774 774 774 774 387 387 387 774 387 774 774 387 774 387 387 774 774 774 774 387 387 387 774 774 387 387 774 774 774 774 387 387 387 387 774 774 774 774 387 774 774 387 387 774 387 387 774 774 774 774 774 774 387 774 774 387 387 387 774 387 774 774 774 387 774 387 774 774 387 774 774 387 387 774 774 774 774 774 387 387 774 774 387 387 387 387 387 774 387 387 387 387 774 774 387 774 387 774 387 387 774 387 774 774 387 387 774 387 387 774 774 387 387 387 774 774 774 774 774 774 387 387 774 774 387 774 774 387 774 387 774 387 387 387 774 387 774 387 387 387 387 387 387 387 387 774 387 774 774 774 774 387 774 387 387 387 387 774 387 387 774 387 387 387 774 774 774 387 774 387 387 387 387 774 387 774 774 774 387 387 387 774 774 774 387 387 774 387 774 387 387 774 387 774 774 774 774 387 387 387 774 387 387 387 387 774 774 774 387 387 387 387 774 387 387 774 774 774 774 387 774 774 387 387 774 387 387 387 774 387 387 774 387 774 774 774 774 387 387 387 387 387 774 774 387 387 774 387 774 774 774 774 387 774 774 387 387 774 387 774 387 774 774 387 387 774 387 387 387 387 774 387 387 387 387 774 387 774 387 774 387 387 774 387 774 774 774 774 774 774 387 774 774 774 774 774 774 774 387 774 387 774 387 387 387 774 387 387 774 774 774 387 774 387 387 774 774 387 387 387 774 387 387 387 387 387 774 774 
! --------------------------------------------------------
